50
150
98
97
96
95
95
94
93
93
93
93
91
90
87
87
80
80
80
77
72
71
68
68
67
64
63
62
60
60
60
57
57
56
54
53
53
52
49
47
45
43
41
41
39
38
38
37
37
36
35
31
